# Objective value = 3.0664689183112472e+02
x[0] 1
x[1] 0
x[2] 0
x[3] 1
x[4] 0
x[5] 1
x[6] 0
x[7] 0
x[8] 0
x[9] 1
x[10] 0
x[11] 0
x[12] 1
x[13] 1
x[14] 0
x[15] 1
x[16] 0
x[17] 1
x[18] 1
x[19] 0
x[20] 0
x[21] 1
x[22] 0
x[23] 0
x[24] 1
x[25] 0
x[26] 0
x[27] 0
x[28] 0
x[29] 0
x[30] 1
x[31] 0
x[32] 1
x[33] 0
x[34] 0
x[35] 1
x[36] 0
x[37] 1
x[38] 0
x[39] 0
x[40] 1
x[41] 0
x[42] 1
x[43] 1
x[44] 0
x[45] 0
x[46] 0
x[47] 1
x[48] 1
x[49] 1
x[50] 1
x[51] 0
x[52] 1
x[53] 1
x[54] 0
x[55] 0
x[56] 1
x[57] 1
x[58] 0
x[59] 1
x[60] 0
x[61] 1
x[62] 1
x[63] 0
x[64] 0
x[65] 0
x[66] 0
x[67] 1
x[68] 1
x[69] 0
x[70] 1
x[71] 0
x[72] 0
x[73] 0
x[74] 0
x[75] 1
x[76] 1
x[77] 1
x[78] 1
x[79] 0
x[80] 0
x[81] 0
x[82] 1
x[83] 1
x[84] 1
x[85] 0
x[86] 0
x[87] 0
x[88] 0
x[89] 0
x[90] 0
x[91] 1
x[92] 0
x[93] 1
x[94] 1
x[95] 0
x[96] 1
x[97] 0
x[98] 1
x[99] 1
x[100] 0
x[101] 1
x[102] 1
x[103] 0
x[104] 0
x[105] 0
x[106] 1
x[107] 0
x[108] 0
x[109] 0
x[110] 1
x[111] 0
x[112] 0
x[113] 1
x[114] 1
x[115] 0
x[116] 1
x[117] 0
x[118] 0
x[119] 1
x[120] 0
x[121] 1
x[122] 0
x[123] 0
x[124] 0
x[125] 1
x[126] 0
x[127] 0
x[128] 0
x[129] 1
x[130] 0
x[131] 1
x[132] 1
x[133] 1
x[134] 1
x[135] 1
x[136] 0
x[137] 0
x[138] 1
x[139] 0
x[140] 0
x[141] 1
x[142] 1
x[143] 0
x[144] 1
x[145] 0
x[146] 0
x[147] 0
x[148] 1
x[149] 0
x[150] 1
x[151] 0
x[152] 0
x[153] 0
x[154] 1
x[155] 1
x[156] 1
x[157] 1
x[158] 1
x[159] 0
x[160] 1
x[161] 1
x[162] 0
x[163] 0
x[164] 1
x[165] 0
x[166] 1
x[167] 0
x[168] 1
x[169] 0
x[170] 1
x[171] 1
x[172] 0
x[173] 0
x[174] 1
x[175] 1
x[176] 0
x[177] 0
x[178] 0
x[179] 1
x[180] 0
x[181] 1
x[182] 1
x[183] 0
x[184] 0
x[185] 1
x[186] 1
x[187] 0
x[188] 0
x[189] 1
x[190] 0
x[191] 1
x[192] 1
x[193] 0
x[194] 0
x[195] 1
x[196] 1
x[197] 0
x[198] 1
x[199] 1
x[200] 1
x[201] 0
x[202] 1
x[203] 1
x[204] 0
x[205] 0
x[206] 0
x[207] 0
x[208] 1
x[209] 0
x[210] 0
x[211] 1
x[212] 0
x[213] 1
x[214] 0
x[215] 0
x[216] 1
x[217] 0
x[218] 1
x[219] 0
x[220] 1
x[221] 1
x[222] 1
x[223] 1
x[224] 1
x[225] 0
x[226] 0
x[227] 1
x[228] 1
x[229] 0
x[230] 0
x[231] 1
x[232] 0
x[233] 1
x[234] 0
x[235] 0
x[236] 1
x[237] 1
x[238] 0
x[239] 1
x[240] 0
x[241] 0
x[242] 1
x[243] 0
x[244] 1
x[245] 1
x[246] 1
x[247] 1
x[248] 0
x[249] 0
x[250] 0
x[251] 1
x[252] 0
x[253] 1
x[254] 0
x[255] 1
x[256] 0
x[257] 0
x[258] 0
x[259] 0
x[260] 1
x[261] 0
x[262] 0
x[263] 1
x[264] 1
x[265] 0
x[266] 1
x[267] 0
x[268] 1
x[269] 0
x[270] 0
x[271] 1
x[272] 1
x[273] 1
x[274] 0
x[275] 0
x[276] 0
x[277] 1
x[278] 1
x[279] 0
x[280] 1
x[281] 1
x[282] 1
x[283] 0
x[284] 0
x[285] 1
x[286] 0
x[287] 1
x[288] 0
x[289] 0
x[290] 1
x[291] 0
x[292] 1
x[293] 0
x[294] 1
x[295] 1
x[296] 1
x[297] 1
x[298] 1
x[299] 1
x[300] 1
x[301] 1
x[302] 1
x[303] 0
x[304] 0
x[305] 0
x[306] 1
x[307] 1
x[308] 1
x[309] 1
x[310] 0
x[311] 0
x[312] 0
x[313] 1
x[314] 1
x[315] 1
x[316] 0
x[317] 1
x[318] 0
x[319] 0
x[320] 1
x[321] 0
x[322] 0
x[323] 0
x[324] 0
x[325] 1
x[326] 0
x[327] 0
x[328] 0
x[329] 0
x[330] 0
x[331] 1
x[332] 0
x[333] 1
x[334] 1
x[335] 0
x[336] 1
x[337] 1
x[338] 1
x[339] 1
x[340] 0
x[341] 0
x[342] 0
x[343] 1
x[344] 1
x[345] 0
x[346] 0
x[347] 0
x[348] 0
x[349] 0
x[350] 1
x[351] 1
x[352] 1
x[353] 0
x[354] 0
x[355] 0
x[356] 1
x[357] 0
x[358] 1
x[359] 0
x[360] 0
x[361] 1
x[362] 1
x[363] 1
x[364] 0
x[365] 1
x[366] 0
x[367] 1
x[368] 1
x[369] 1
x[370] 0
x[371] 1
x[372] 1
x[373] 1
x[374] 0
x[375] 1
x[376] 0
x[377] 0
x[378] 0
x[379] 1
x[380] 1
x[381] 1
x[382] 1
x[383] 0
x[384] 1
x[385] 1
x[386] 0
x[387] 1
x[388] 0
x[389] 0
x[390] 0
x[391] 0
x[392] 1
x[393] 0
x[394] 0
x[395] 0
x[396] 1
x[397] 1
x[398] 0
x[399] 1
x[400] 0
x[401] 0
x[402] 1
x[403] 1
x[404] 1
x[405] 1
x[406] 1
x[407] 1
x[408] 1
x[409] 0
x[410] 0
x[411] 1
x[412] 0
x[413] 1
x[414] 1
x[415] 1
x[416] 1
x[417] 0
x[418] 0
x[419] 1
x[420] 0
x[421] 1
x[422] 0
x[423] 1
x[424] 1
x[425] 1
x[426] 0
x[427] 1
x[428] 1
x[429] 0
x[430] 1
x[431] 0
x[432] 1
x[433] 0
x[434] 1
x[435] 0
x[436] 0
x[437] 0
x[438] 1
x[439] 1
x[440] 1
x[441] 0
x[442] 0
x[443] 0
x[444] 1
x[445] 0
x[446] 1
x[447] 1
x[448] 0
x[449] 0
x[450] 1
x[451] 1
x[452] 0
x[453] 0
x[454] 1
x[455] 1
x[456] 1
x[457] 1
x[458] 1
x[459] 0
x[460] 0
x[461] 0
x[462] 0
x[463] 0
x[464] 1
x[465] 1
x[466] 1
x[467] 0
x[468] 0
x[469] 1
x[470] 0
x[471] 1
x[472] 1
x[473] 0
x[474] 1
x[475] 6.6098446996592767e-07
x[476] 1
x[477] 0
x[478] 0
x[479] 0
x[480] 0
x[481] 1
x[482] 0
x[483] 1
x[484] 0
x[485] 1
x[486] 0
x[487] 0
x[488] 1
x[489] 1
x[490] 1
x[491] 1
x[492] 0
x[493] 0
x[494] 0
x[495] 0
x[496] 1
x[497] 1
x[498] 1
x[499] 0
x[500] 0
x[501] 1
x[502] 0
x[503] 0
x[504] 0
x[505] 0
x[506] 0
x[507] 1
x[508] 0
x[509] 1
x[510] 1
x[511] 0
x[512] 0
x[513] 0
x[514] 1
x[515] 1
x[516] 1
x[517] 0
x[518] 0
x[519] 0
x[520] 1
x[521] 1
x[522] 1
x[523] 0
x[524] 1
x[525] 1
x[526] 0
x[527] 0
x[528] 0
x[529] 1
x[530] 1
x[531] 1
x[532] 1
x[533] 1
x[534] 1
x[535] 0
x[536] 0
x[537] 1
x[538] 0
x[539] 0
x[540] 1
x[541] 1
x[542] 1
x[543] 0
x[544] 0
x[545] 1
x[546] 0
x[547] 1
x[548] 0
x[549] 1
x[550] 0
x[551] 0
x[552] 0
x[553] 0
x[554] 1
x[555] 0
x[556] 1
x[557] 0
x[558] 1
x[559] 0
x[560] 0
x[561] 1
x[562] 0
x[563] 0
x[564] 0
x[565] 0
x[566] 1
x[567] 1
x[568] 1
x[569] 0
x[570] 0
x[571] 0
x[572] 0
x[573] 1
x[574] 1
x[575] 1
x[576] 0
x[577] 0
x[578] 0
x[579] 1
x[580] 1
x[581] 0
x[582] 1
x[583] 1
x[584] 0
x[585] 1
x[586] 0
x[587] 0
x[588] 0
x[589] 1
x[590] 0
x[591] 1
x[592] 0
x[593] 0
x[594] 0
x[595] 1
x[596] 1
x[597] 0
x[598] 0
x[599] 1
x[600] 0
x[601] 1
x[602] 1
x[603] 0
x[604] 1
x[605] 0
x[606] 0
x[607] 1
x[608] 0
x[609] 0
x[610] 1
x[611] 0
x[612] 1
x[613] 0
x[614] 1
x[615] 0
x[616] 0
x[617] 1
x[618] 0
x[619] 1
x[620] 1
x[621] 1
x[622] 0
x[623] 1
x[624] 1
x[625] 0
x[626] 1
x[627] 0
x[628] 0
x[629] 1
x[630] 0
x[631] 0
x[632] 1
x[633] 1
x[634] 1
x[635] 1
x[636] 1
x[637] 0
x[638] 1
x[639] 0
x[640] 1
x[641] 0
x[642] 1
x[643] 0
x[644] 1
x[645] 0
x[646] 0
x[647] 1
x[648] 0
x[649] 0
x[650] 0
x[651] 1
x[652] 1
x[653] 1
x[654] 1
x[655] 1
x[656] 0
x[657] 0
x[658] 0
x[659] 1
x[660] 0
x[661] 1
x[662] 1
x[663] 1
x[664] 0
x[665] 1
x[666] 1
x[667] 0
x[668] 1
x[669] 1
x[670] 1
x[671] 0
x[672] 0
x[673] 0
x[674] 1
x[675] 1
x[676] 1
x[677] 0
x[678] 0
x[679] 1
x[680] 0
x[681] 1
x[682] 0
x[683] 1
x[684] 1
x[685] 1
x[686] 0
x[687] 0
x[688] 0
x[689] 1
x[690] 0
x[691] 0
x[692] 0
x[693] 1
x[694] 0
x[695] 0
x[696] 0
x[697] 0
x[698] 1
x[699] 0
x[700] 1
x[701] 1
x[702] 0
x[703] 1
x[704] 1
x[705] 1
x[706] 1
x[707] 0
x[708] 0
x[709] 0
x[710] 0
x[711] 1
x[712] 1
x[713] 0
x[714] 1
x[715] 1
x[716] 1
x[717] 1
x[718] 0
x[719] 0
x[720] 0
x[721] 0
x[722] 1
x[723] 0
x[724] 0
x[725] 1
x[726] 1
x[727] 1
x[728] 1
x[729] 1
x[730] 0
x[731] 1
x[732] 1
x[733] 0
x[734] 1
x[735] 1
x[736] 0
x[737] 1
x[738] 0
x[739] 0
x[740] 1
x[741] 0
x[742] 0
x[743] 0
x[744] 0
x[745] 0
x[746] 1
x[747] 1
x[748] 0
x[749] 0
x[750] 1
x[751] 1
x[752] 0
x[753] 1
x[754] 0
x[755] 0
x[756] 0
x[757] 0
x[758] 1
x[759] 1
x[760] 1
x[761] 0
x[762] 1
x[763] 0
x[764] 1
x[765] 1
x[766] 0
x[767] 0
x[768] 0
x[769] 0
x[770] 1
x[771] 1
x[772] 0
x[773] 0
x[774] 1
x[775] 0
x[776] 1
x[777] 1
x[778] 1
x[779] 1
x[780] 1
x[781] 0
x[782] 0
x[783] 0
x[784] 1
x[785] 0
x[786] 0
x[787] 0
x[788] 0
x[789] 1
x[790] 0
x[791] 1
x[792] 1
x[793] 0
x[794] 1
x[795] 0
x[796] 1
x[797] 0
x[798] 0
x[799] 1
x[800] 0
x[801] 1
x[802] 1
x[803] 1
x[804] 0
x[805] 1
x[806] 1
x[807] 1
x[808] 0
x[809] 1
x[810] 0
x[811] 0
x[812] 0
x[813] 1
x[814] 0
x[815] 1
x[816] 0
x[817] 0
x[818] 1
x[819] 1
x[820] 0
x[821] 1
x[822] 1
x[823] 1
x[824] 1
x[825] 1
x[826] 0
x[827] 0
x[828] 1
x[829] 0
x[830] 1
x[831] 1
x[832] 0
x[833] 1
x[834] 0
x[835] 0
x[836] 1
x[837] 1
x[838] 1
x[839] 1
x[840] 1
x[841] 0
x[842] 1
x[843] 0
x[844] 1
x[845] 0
x[846] 1
x[847] 0
x[848] 1
x[849] 0
x[850] 1
x[851] 0
x[852] 0
x[853] 1
x[854] 1
x[855] 1
x[856] 0
x[857] 1
x[858] 1
x[859] 0
x[860] 0
x[861] 0
x[862] 0
x[863] 1
x[864] 0
x[865] 1
x[866] 0
x[867] 1
x[868] 1
x[869] 1
x[870] 0
x[871] 1
x[872] 1
x[873] 0
x[874] 1
x[875] 0
x[876] 1
x[877] 0
x[878] 1
x[879] 0
x[880] 1
x[881] 0
x[882] 1
x[883] 0
x[884] 1
x[885] 1
x[886] 1
x[887] 0
x[888] 0
x[889] 1
x[890] 1
x[891] 1
x[892] 0
x[893] 0
x[894] 1
x[895] 1
x[896] 1
x[897] 1
x[898] 1
x[899] 1
x[900] 1
x[901] 0
x[902] 1
x[903] 0
x[904] 1
x[905] 1
x[906] 1
x[907] 0
x[908] 0
x[909] 1
x[910] 1
x[911] 0
x[912] 1
x[913] 0
x[914] 0
x[915] 0
x[916] 1
x[917] 0
x[918] 1
x[919] 0
x[920] 0
x[921] 1
x[922] 1
x[923] 0
x[924] 1
x[925] 0
x[926] 0
x[927] 0
x[928] 0
x[929] 1
x[930] 0
x[931] 1
x[932] 0
x[933] 0
x[934] 0
x[935] 0
x[936] 0
x[937] 0
x[938] 1
x[939] 0
x[940] 0
x[941] 0
x[942] 1
x[943] 1
x[944] 0
x[945] 0
x[946] 1
x[947] 0
x[948] 0
x[949] 1
x[950] 1
x[951] 0
x[952] 1
x[953] 9.9999933823231280e-01
x[954] 1
x[955] 1
x[956] 0
x[957] 1
x[958] 0
x[959] 0
x[960] 0
x[961] 0
x[962] 1
x[963] 1
x[964] 1
x[965] 0
x[966] 0
x[967] 1
x[968] 0
x[969] 1
x[970] 0
x[971] 0
x[972] 0
x[973] 0
x[974] 1
x[975] 1
x[976] 0
x[977] 0
x[978] 0
x[979] 1
x[980] 0
x[981] 0
x[982] 0
x[983] 1
x[984] 1
x[985] 0
x[986] 1
x[987] 1
x[988] 0
x[989] 1
x[990] 1
x[991] 0
x[992] 1
x[993] 1
x[994] 0
x[995] 1
x[996] 0
x[997] 1
x[998] 1
x[999] 0
